\ This file has been generated by DOcplex
\ ENCODING=ISO-8859-1
\Problem name: CounterFactual

Minimize
 obj: zeta_1 - zeta_0
Subject To
 c1: y_0_0 = 1
 c2: y_1_0 = 1
 c3: y_2_0 = 1
 c4: y_3_0 = 1
 c5: y_4_0 = 1
 c6: y_0_0 - y_0_1 - y_0_16 = 0
 c7: y_0_1 - y_0_2 - y_0_9 = 0
 c8: y_0_2 - y_0_3 - y_0_6 = 0
 c9: y_0_3 - y_0_4 - y_0_5 = 0
 c10: y_0_6 - y_0_7 - y_0_8 = 0
 c11: y_0_9 - y_0_10 - y_0_13 = 0
 c12: y_0_10 - y_0_11 - y_0_12 = 0
 c13: y_0_13 - y_0_14 - y_0_15 = 0
 c14: y_0_16 - y_0_17 - y_0_24 = 0
 c15: y_0_17 - y_0_18 - y_0_21 = 0
 c16: y_0_18 - y_0_19 - y_0_20 = 0
 c17: y_0_21 - y_0_22 - y_0_23 = 0
 c18: y_0_24 - y_0_25 - y_0_28 = 0
 c19: y_0_25 - y_0_26 - y_0_27 = 0
 c20: y_0_28 - y_0_29 - y_0_30 = 0
 c21: y_1_0 - y_1_1 - y_1_16 = 0
 c22: y_1_1 - y_1_2 - y_1_9 = 0
 c23: y_1_2 - y_1_3 - y_1_6 = 0
 c24: y_1_3 - y_1_4 - y_1_5 = 0
 c25: y_1_6 - y_1_7 - y_1_8 = 0
 c26: y_1_9 - y_1_10 - y_1_13 = 0
 c27: y_1_10 - y_1_11 - y_1_12 = 0
 c28: y_1_13 - y_1_14 - y_1_15 = 0
 c29: y_1_16 - y_1_17 - y_1_24 = 0
 c30: y_1_17 - y_1_18 - y_1_21 = 0
 c31: y_1_18 - y_1_19 - y_1_20 = 0
 c32: y_1_21 - y_1_22 - y_1_23 = 0
 c33: y_1_24 - y_1_25 - y_1_28 = 0
 c34: y_1_25 - y_1_26 - y_1_27 = 0
 c35: y_1_28 - y_1_29 - y_1_30 = 0
 c36: y_2_0 - y_2_1 - y_2_14 = 0
 c37: y_2_1 - y_2_2 - y_2_7 = 0
 c38: y_2_2 - y_2_3 - y_2_6 = 0
 c39: y_2_3 - y_2_4 - y_2_5 = 0
 c40: y_2_7 - y_2_8 - y_2_11 = 0
 c41: y_2_8 - y_2_9 - y_2_10 = 0
 c42: y_2_11 - y_2_12 - y_2_13 = 0
 c43: y_2_14 - y_2_15 - y_2_22 = 0
 c44: y_2_15 - y_2_16 - y_2_19 = 0
 c45: y_2_16 - y_2_17 - y_2_18 = 0
 c46: y_2_19 - y_2_20 - y_2_21 = 0
 c47: y_2_22 - y_2_23 - y_2_26 = 0
 c48: y_2_23 - y_2_24 - y_2_25 = 0
 c49: y_2_26 - y_2_27 - y_2_28 = 0
 c50: y_3_0 - y_3_1 - y_3_14 = 0
 c51: y_3_1 - y_3_2 - y_3_7 = 0
 c52: y_3_2 - y_3_3 - y_3_4 = 0
 c53: y_3_4 - y_3_5 - y_3_6 = 0
 c54: y_3_7 - y_3_8 - y_3_11 = 0
 c55: y_3_8 - y_3_9 - y_3_10 = 0
 c56: y_3_11 - y_3_12 - y_3_13 = 0
 c57: y_3_14 - y_3_15 - y_3_22 = 0
 c58: y_3_15 - y_3_16 - y_3_19 = 0
 c59: y_3_16 - y_3_17 - y_3_18 = 0
 c60: y_3_19 - y_3_20 - y_3_21 = 0
 c61: y_3_22 - y_3_23 - y_3_26 = 0
 c62: y_3_23 - y_3_24 - y_3_25 = 0
 c63: y_3_26 - y_3_27 - y_3_28 = 0
 c64: y_4_0 - y_4_1 - y_4_16 = 0
 c65: y_4_1 - y_4_2 - y_4_9 = 0
 c66: y_4_2 - y_4_3 - y_4_6 = 0
 c67: y_4_3 - y_4_4 - y_4_5 = 0
 c68: y_4_6 - y_4_7 - y_4_8 = 0
 c69: y_4_9 - y_4_10 - y_4_13 = 0
 c70: y_4_10 - y_4_11 - y_4_12 = 0
 c71: y_4_13 - y_4_14 - y_4_15 = 0
 c72: y_4_16 - y_4_17 - y_4_24 = 0
 c73: y_4_17 - y_4_18 - y_4_21 = 0
 c74: y_4_18 - y_4_19 - y_4_20 = 0
 c75: y_4_21 - y_4_22 - y_4_23 = 0
 c76: y_4_24 - y_4_25 - y_4_28 = 0
 c77: y_4_25 - y_4_26 - y_4_27 = 0
 c78: y_4_28 - y_4_29 - y_4_30 = 0
 c79: y_0_1 - lambda_0_0 <= 0
 c80: y_0_16 + lambda_0_0 <= 1
 c81: y_0_2 + y_0_17 - lambda_0_1 <= 0
 c82: y_0_9 + y_0_24 + lambda_0_1 <= 1
 c83: y_0_3 + y_0_10 + y_0_18 + y_0_25 - lambda_0_2 <= 0
 c84: y_0_6 + y_0_13 + y_0_21 + y_0_28 + lambda_0_2 <= 1
 c85: y_0_4 + y_0_7 + y_0_11 + y_0_14 + y_0_19 + y_0_22 + y_0_26 + y_0_29
      - lambda_0_3 <= 0
 c86: y_0_5 + y_0_8 + y_0_12 + y_0_15 + y_0_20 + y_0_23 + y_0_27 + y_0_30
      + lambda_0_3 <= 1
 c87: y_1_1 - lambda_1_0 <= 0
 c88: y_1_16 + lambda_1_0 <= 1
 c89: y_1_2 + y_1_17 - lambda_1_1 <= 0
 c90: y_1_9 + y_1_24 + lambda_1_1 <= 1
 c91: y_1_3 + y_1_10 + y_1_18 + y_1_25 - lambda_1_2 <= 0
 c92: y_1_6 + y_1_13 + y_1_21 + y_1_28 + lambda_1_2 <= 1
 c93: y_1_4 + y_1_7 + y_1_11 + y_1_14 + y_1_19 + y_1_22 + y_1_26 + y_1_29
      - lambda_1_3 <= 0
 c94: y_1_5 + y_1_8 + y_1_12 + y_1_15 + y_1_20 + y_1_23 + y_1_27 + y_1_30
      + lambda_1_3 <= 1
 c95: y_2_1 - lambda_2_0 <= 0
 c96: y_2_14 + lambda_2_0 <= 1
 c97: y_2_2 + y_2_15 - lambda_2_1 <= 0
 c98: y_2_7 + y_2_22 + lambda_2_1 <= 1
 c99: y_2_3 + y_2_8 + y_2_16 + y_2_23 - lambda_2_2 <= 0
 c100: y_2_6 + y_2_11 + y_2_19 + y_2_26 + lambda_2_2 <= 1
 c101: y_2_4 + y_2_9 + y_2_12 + y_2_17 + y_2_20 + y_2_24 + y_2_27 - lambda_2_3
        <= 0
 c102: y_2_5 + y_2_10 + y_2_13 + y_2_18 + y_2_21 + y_2_25 + y_2_28 + lambda_2_3
        <= 1
 c103: y_3_1 - lambda_3_0 <= 0
 c104: y_3_14 + lambda_3_0 <= 1
 c105: y_3_2 + y_3_15 - lambda_3_1 <= 0
 c106: y_3_7 + y_3_22 + lambda_3_1 <= 1
 c107: y_3_3 + y_3_8 + y_3_16 + y_3_23 - lambda_3_2 <= 0
 c108: y_3_4 + y_3_11 + y_3_19 + y_3_26 + lambda_3_2 <= 1
 c109: y_3_5 + y_3_9 + y_3_12 + y_3_17 + y_3_20 + y_3_24 + y_3_27 - lambda_3_3
        <= 0
 c110: y_3_6 + y_3_10 + y_3_13 + y_3_18 + y_3_21 + y_3_25 + y_3_28 + lambda_3_3
        <= 1
 c111: y_4_1 - lambda_4_0 <= 0
 c112: y_4_16 + lambda_4_0 <= 1
 c113: y_4_2 + y_4_17 - lambda_4_1 <= 0
 c114: y_4_9 + y_4_24 + lambda_4_1 <= 1
 c115: y_4_3 + y_4_10 + y_4_18 + y_4_25 - lambda_4_2 <= 0
 c116: y_4_6 + y_4_13 + y_4_21 + y_4_28 + lambda_4_2 <= 1
 c117: y_4_4 + y_4_7 + y_4_11 + y_4_14 + y_4_19 + y_4_22 + y_4_26 + y_4_29
       - lambda_4_3 <= 0
 c118: y_4_5 + y_4_8 + y_4_12 + y_4_15 + y_4_20 + y_4_23 + y_4_27 + y_4_30
       + lambda_4_3 <= 1
 c119: mu_0_0 - mu_0_1 >= 0
 c120: mu_0_1 - mu_0_2 >= 0
 c121: mu_0_2 - mu_0_3 >= 0
 c122: mu_0_3 - mu_0_4 >= 0
 c123: mu_0_4 - mu_0_5 >= 0
 c124: mu_0_5 - mu_0_6 >= 0
 c125: mu_1_0 - mu_1_1 >= 0
 c126: mu_1_1 - mu_1_2 >= 0
 c127: mu_1_2 - mu_1_3 >= 0
 c128: mu_1_3 - mu_1_4 >= 0
 c129: mu_1_4 - mu_1_5 >= 0
 c130: mu_1_5 - mu_1_6 >= 0
 c131: mu_1_6 - mu_1_7 >= 0
 c132: mu_2_0 - mu_2_1 >= 0
 c133: mu_2_1 - mu_2_2 >= 0
 c134: mu_2_2 - mu_2_3 >= 0
 c135: mu_2_3 - mu_2_4 >= 0
 c136: mu_3_0 - mu_3_1 >= 0
 c137: mu_3_1 - mu_3_2 >= 0
 c138: mu_3_2 - mu_3_3 >= 0
 c139: mu_4_0 - mu_4_1 >= 0
 c140: mu_4_1 - mu_4_2 >= 0
 c141: mu_4_2 - mu_4_3 >= 0
 c142: mu_5_0 - mu_5_1 >= 0
 c143: mu_5_1 - mu_5_2 >= 0
 c144: mu_5_2 - mu_5_3 >= 0
 c145: mu_5_3 - mu_5_4 >= 0
 c146: mu_5_4 - mu_5_5 >= 0
 c147: mu_5_5 - mu_5_6 >= 0
 c148: mu_5_6 - mu_5_7 >= 0
 c149: mu_5_7 - mu_5_8 >= 0
 c150: mu_6_0 - mu_6_1 >= 0
 c151: mu_6_1 - mu_6_2 >= 0
 c152: mu_6_2 - mu_6_3 >= 0
 c153: mu_6_3 - mu_6_4 >= 0
 c154: mu_6_4 - mu_6_5 >= 0
 c155: mu_7_0 - mu_7_1 >= 0
 c156: mu_7_1 - mu_7_2 >= 0
 c157: mu_7_2 - mu_7_3 >= 0
 c158: mu_7_3 - mu_7_4 >= 0
 c159: mu_7_4 - mu_7_5 >= 0
 c160: mu_7_5 - mu_7_6 >= 0
 c161: mu_0_1 + y_0_26 <= 1
 c162: mu_0_0 - y_0_27 >= 0
 c163: mu_0_1 - 0.000000000100 y_0_27 <= 0
 c164: mu_0_1 + y_4_11 <= 1
 c165: mu_0_0 - y_4_12 >= 0
 c166: mu_0_1 - 0.000000000100 y_4_12 <= 0
 c167: mu_0_2 + y_1_11 <= 1
 c168: mu_0_1 - y_1_12 >= 0
 c169: mu_0_2 - 0.000000000100 y_1_12 <= 0
 c170: mu_0_2 + y_3_3 <= 1
 c171: mu_0_1 - y_3_4 >= 0
 c172: mu_0_2 - 0.000000000100 y_3_4 <= 0
 c173: mu_0_3 + y_2_20 <= 1
 c174: mu_0_2 - y_2_21 >= 0
 c175: mu_0_3 - 0.000000000100 y_2_21 <= 0
 c176: mu_0_4 + y_0_10 <= 1
 c177: mu_0_3 - y_0_13 >= 0
 c178: mu_0_4 - 0.000000000100 y_0_13 <= 0
 c179: mu_0_4 + y_4_22 <= 1
 c180: mu_0_3 - y_4_23 >= 0
 c181: mu_0_4 - 0.000000000100 y_4_23 <= 0
 c182: mu_0_5 + y_0_18 <= 1
 c183: mu_0_4 - y_0_21 >= 0
 c184: mu_0_5 - 0.000000000100 y_0_21 <= 0
 c185: mu_0_5 + y_4_3 <= 1
 c186: mu_0_4 - y_4_6 >= 0
 c187: mu_0_5 - 0.000000000100 y_4_6 <= 0
 c188: mu_0_6 + y_0_3 <= 1
 c189: mu_0_5 - y_0_6 >= 0
 c190: mu_0_6 - 0.000000000100 y_0_6 <= 0
 c191: mu_0_6 + y_2_3 <= 1
 c192: mu_0_5 - y_2_6 >= 0
 c193: mu_0_6 - 0.000000000100 y_2_6 <= 0
 c194: mu_1_1 + y_0_14 <= 1
 c195: mu_1_0 - y_0_15 >= 0
 c196: mu_1_1 - 0.000000000100 y_0_15 <= 0
 c197: mu_1_1 + y_1_19 <= 1
 c198: mu_1_0 - y_1_20 >= 0
 c199: mu_1_1 - 0.000000000100 y_1_20 <= 0
 c200: mu_1_1 + y_3_27 <= 1
 c201: mu_1_0 - y_3_28 >= 0
 c202: mu_1_1 - 0.000000000100 y_3_28 <= 0
 c203: mu_1_2 + y_3_5 <= 1
 c204: mu_1_1 - y_3_6 >= 0
 c205: mu_1_2 - 0.000000000100 y_3_6 <= 0
 c206: mu_1_2 + y_3_12 <= 1
 c207: mu_1_1 - y_3_13 >= 0
 c208: mu_1_2 - 0.000000000100 y_3_13 <= 0
 c209: mu_1_2 + y_4_17 <= 1
 c210: mu_1_1 - y_4_24 >= 0
 c211: mu_1_2 - 0.000000000100 y_4_24 <= 0
 c212: mu_1_3 + y_1_17 <= 1
 c213: mu_1_2 - y_1_24 >= 0
 c214: mu_1_3 - 0.000000000100 y_1_24 <= 0
 c215: mu_1_4 + y_1_10 <= 1
 c216: mu_1_3 - y_1_13 >= 0
 c217: mu_1_4 - 0.000000000100 y_1_13 <= 0
 c218: mu_1_5 + y_0_4 <= 1
 c219: mu_1_4 - y_0_5 >= 0
 c220: mu_1_5 - 0.000000000100 y_0_5 <= 0
 c221: mu_1_5 + y_1_7 <= 1
 c222: mu_1_4 - y_1_8 >= 0
 c223: mu_1_5 - 0.000000000100 y_1_8 <= 0
 c224: mu_1_5 + y_4_2 <= 1
 c225: mu_1_4 - y_4_9 >= 0
 c226: mu_1_5 - 0.000000000100 y_4_9 <= 0
 c227: mu_1_6 + y_0_1 <= 1
 c228: mu_1_5 - y_0_16 >= 0
 c229: mu_1_6 - 0.000000000100 y_0_16 <= 0
 c230: mu_1_6 + y_2_15 <= 1
 c231: mu_1_5 - y_2_22 >= 0
 c232: mu_1_6 - 0.000000000100 y_2_22 <= 0
 c233: mu_1_7 + y_0_17 <= 1
 c234: mu_1_6 - y_0_24 >= 0
 c235: mu_1_7 - 0.000000000100 y_0_24 <= 0
 c236: mu_1_7 + y_1_26 <= 1
 c237: mu_1_6 - y_1_27 >= 0
 c238: mu_1_7 - 0.000000000100 y_1_27 <= 0
 c239: mu_1_7 + y_3_16 <= 1
 c240: mu_1_6 - y_3_19 >= 0
 c241: mu_1_7 - 0.000000000100 y_3_19 <= 0
 c242: mu_1_7 + y_4_14 <= 1
 c243: mu_1_6 - y_4_15 >= 0
 c244: mu_1_7 - 0.000000000100 y_4_15 <= 0
 c245: mu_2_1 + y_4_10 <= 1
 c246: mu_2_0 - y_4_13 >= 0
 c247: mu_2_1 - 0.000000000100 y_4_13 <= 0
 c248: mu_2_2 + y_2_2 <= 1
 c249: mu_2_1 - y_2_7 >= 0
 c250: mu_2_2 - 0.000000000100 y_2_7 <= 0
 c251: mu_2_3 + y_1_22 <= 1
 c252: mu_2_2 - y_1_23 >= 0
 c253: mu_2_3 - 0.000000000100 y_1_23 <= 0
 c254: mu_2_3 + y_3_8 <= 1
 c255: mu_2_2 - y_3_11 >= 0
 c256: mu_2_3 - 0.000000000100 y_3_11 <= 0
 c257: mu_2_4 + y_0_19 <= 1
 c258: mu_2_3 - y_0_20 >= 0
 c259: mu_2_4 - 0.000000000100 y_0_20 <= 0
 c260: mu_3_1 + y_3_17 <= 1
 c261: mu_3_0 - y_3_18 >= 0
 c262: mu_3_1 - 0.000000000100 y_3_18 <= 0
 c263: mu_3_2 + y_1_29 <= 1
 c264: mu_3_1 - y_1_30 >= 0
 c265: mu_3_2 - 0.000000000100 y_1_30 <= 0
 c266: mu_3_2 + y_3_20 <= 1
 c267: mu_3_1 - y_3_21 >= 0
 c268: mu_3_2 - 0.000000000100 y_3_21 <= 0
 c269: mu_3_3 + y_2_8 <= 1
 c270: mu_3_2 - y_2_11 >= 0
 c271: mu_3_3 - 0.000000000100 y_2_11 <= 0
 c272: mu_4_1 + y_2_17 <= 1
 c273: mu_4_0 - y_2_18 >= 0
 c274: mu_4_1 - 0.000000000100 y_2_18 <= 0
 c275: mu_4_2 + y_2_27 <= 1
 c276: mu_4_1 - y_2_28 >= 0
 c277: mu_4_2 - 0.000000000100 y_2_28 <= 0
 c278: mu_4_2 + y_3_24 <= 1
 c279: mu_4_1 - y_3_25 >= 0
 c280: mu_4_2 - 0.000000000100 y_3_25 <= 0
 c281: mu_4_3 + y_1_18 <= 1
 c282: mu_4_2 - y_1_21 >= 0
 c283: mu_4_3 - 0.000000000100 y_1_21 <= 0
 c284: mu_4_3 + y_4_19 <= 1
 c285: mu_4_2 - y_4_20 >= 0
 c286: mu_4_3 - 0.000000000100 y_4_20 <= 0
 c287: mu_5_1 + y_0_25 <= 1
 c288: mu_5_0 - y_0_28 >= 0
 c289: mu_5_1 - 0.000000000100 y_0_28 <= 0
 c290: mu_5_2 + y_0_2 <= 1
 c291: mu_5_1 - y_0_9 >= 0
 c292: mu_5_2 - 0.000000000100 y_0_9 <= 0
 c293: mu_5_2 + y_3_9 <= 1
 c294: mu_5_1 - y_3_10 >= 0
 c295: mu_5_2 - 0.000000000100 y_3_10 <= 0
 c296: mu_5_3 + y_2_1 <= 1
 c297: mu_5_2 - y_2_14 >= 0
 c298: mu_5_3 - 0.000000000100 y_2_14 <= 0
 c299: mu_5_3 + y_3_1 <= 1
 c300: mu_5_2 - y_3_14 >= 0
 c301: mu_5_3 - 0.000000000100 y_3_14 <= 0
 c302: mu_5_3 + y_4_25 <= 1
 c303: mu_5_2 - y_4_28 >= 0
 c304: mu_5_3 - 0.000000000100 y_4_28 <= 0
 c305: mu_5_4 + y_1_2 <= 1
 c306: mu_5_3 - y_1_9 >= 0
 c307: mu_5_4 - 0.000000000100 y_1_9 <= 0
 c308: mu_5_5 + y_4_4 <= 1
 c309: mu_5_4 - y_4_5 >= 0
 c310: mu_5_5 - 0.000000000100 y_4_5 <= 0
 c311: mu_5_6 + y_2_23 <= 1
 c312: mu_5_5 - y_2_26 >= 0
 c313: mu_5_6 - 0.000000000100 y_2_26 <= 0
 c314: mu_5_7 + y_4_18 <= 1
 c315: mu_5_6 - y_4_21 >= 0
 c316: mu_5_7 - 0.000000000100 y_4_21 <= 0
 c317: mu_5_8 + y_1_14 <= 1
 c318: mu_5_7 - y_1_15 >= 0
 c319: mu_5_8 - 0.000000000100 y_1_15 <= 0
 c320: mu_6_1 + y_2_9 <= 1
 c321: mu_6_0 - y_2_10 >= 0
 c322: mu_6_1 - 0.000000000100 y_2_10 <= 0
 c323: mu_6_2 + y_0_22 <= 1
 c324: mu_6_1 - y_0_23 >= 0
 c325: mu_6_2 - 0.000000000100 y_0_23 <= 0
 c326: mu_6_3 + y_2_12 <= 1
 c327: mu_6_2 - y_2_13 >= 0
 c328: mu_6_3 - 0.000000000100 y_2_13 <= 0
 c329: mu_6_4 + y_2_24 <= 1
 c330: mu_6_3 - y_2_25 >= 0
 c331: mu_6_4 - 0.000000000100 y_2_25 <= 0
 c332: mu_6_5 + y_1_4 <= 1
 c333: mu_6_4 - y_1_5 >= 0
 c334: mu_6_5 - 0.000000000100 y_1_5 <= 0
 c335: mu_6_5 + y_1_25 <= 1
 c336: mu_6_4 - y_1_28 >= 0
 c337: mu_6_5 - 0.000000000100 y_1_28 <= 0
 c338: mu_6_5 + y_3_23 <= 1
 c339: mu_6_4 - y_3_26 >= 0
 c340: mu_6_5 - 0.000000000100 y_3_26 <= 0
 c341: mu_7_1 + y_4_7 <= 1
 c342: mu_7_0 - y_4_8 >= 0
 c343: mu_7_1 - 0.000000000100 y_4_8 <= 0
 c344: mu_7_2 + y_1_3 <= 1
 c345: mu_7_1 - y_1_6 >= 0
 c346: mu_7_2 - 0.000000000100 y_1_6 <= 0
 c347: mu_7_2 + y_3_2 <= 1
 c348: mu_7_1 - y_3_7 >= 0
 c349: mu_7_2 - 0.000000000100 y_3_7 <= 0
 c350: mu_7_3 + y_0_11 <= 1
 c351: mu_7_2 - y_0_12 >= 0
 c352: mu_7_3 - 0.000000000100 y_0_12 <= 0
 c353: mu_7_3 + y_1_1 <= 1
 c354: mu_7_2 - y_1_16 >= 0
 c355: mu_7_3 - 0.000000000100 y_1_16 <= 0
 c356: mu_7_3 + y_2_16 <= 1
 c357: mu_7_2 - y_2_19 >= 0
 c358: mu_7_3 - 0.000000000100 y_2_19 <= 0
 c359: mu_7_3 + y_3_15 <= 1
 c360: mu_7_2 - y_3_22 >= 0
 c361: mu_7_3 - 0.000000000100 y_3_22 <= 0
 c362: mu_7_3 + y_4_1 <= 1
 c363: mu_7_2 - y_4_16 >= 0
 c364: mu_7_3 - 0.000000000100 y_4_16 <= 0
 c365: mu_7_4 + y_0_7 <= 1
 c366: mu_7_3 - y_0_8 >= 0
 c367: mu_7_4 - 0.000000000100 y_0_8 <= 0
 c368: mu_7_4 + y_4_26 <= 1
 c369: mu_7_3 - y_4_27 >= 0
 c370: mu_7_4 - 0.000000000100 y_4_27 <= 0
 c371: mu_7_5 + y_0_29 <= 1
 c372: mu_7_4 - y_0_30 >= 0
 c373: mu_7_5 - 0.000000000100 y_0_30 <= 0
 c374: mu_7_5 + y_4_29 <= 1
 c375: mu_7_4 - y_4_30 >= 0
 c376: mu_7_5 - 0.000000000100 y_4_30 <= 0
 c377: mu_7_6 + y_2_4 <= 1
 c378: mu_7_5 - y_2_5 >= 0
 c379: mu_7_6 - 0.000000000100 y_2_5 <= 0
 c380: z_0 - y_0_4 - y_0_5 - y_0_8 - y_0_11 - y_0_12 - y_0_14 - y_0_19 - y_0_27
       - y_1_4 - y_1_5 - y_1_7 - y_1_11 - y_1_12 - y_1_14 - y_1_19 - y_1_20
       - y_1_22 - y_1_26 - y_2_4 - y_2_5 - y_2_9 - y_2_10 - y_2_12 - y_2_17
       - y_2_18 - y_2_20 - y_2_21 - y_2_24 - y_3_3 - y_3_5 - y_3_6 - y_3_9
       - y_3_12 - y_3_13 - y_3_18 - y_3_24 - y_3_27 - y_4_4 - y_4_5 - y_4_8
       - y_4_14 - y_4_19 - y_4_20 - y_4_22 - y_4_27 = 0
 c381: z_1 - y_0_7 - y_0_15 - y_0_20 - y_0_22 - y_0_23 - y_0_26 - y_0_29
       - y_0_30 - y_1_8 - y_1_15 - y_1_23 - y_1_27 - y_1_29 - y_1_30 - y_2_6
       - y_2_13 - y_2_25 - y_2_27 - y_2_28 - y_3_10 - y_3_17 - y_3_20 - y_3_21
       - y_3_25 - y_3_28 - y_4_7 - y_4_11 - y_4_12 - y_4_15 - y_4_23 - y_4_26
       - y_4_29 - y_4_30 = 0
 c382: z_1 - z_0 >= 0
 c383: zeta_1 - y_0_7 - y_0_15 - y_0_20 - y_0_22 - y_0_23 - y_0_26 - y_0_29
       - y_0_30 - y_3_10 - y_3_17 - y_3_20 - y_3_21 - y_3_25 - y_3_28 = 0
 c384: zeta_0 - y_0_4 - y_0_5 - y_0_8 - y_0_11 - y_0_12 - y_0_14 - y_0_19
       - y_0_27 - y_3_3 - y_3_5 - y_3_6 - y_3_9 - y_3_12 - y_3_13 - y_3_18
       - y_3_24 - y_3_27 = 0

Bounds
       y_0_0 <= 1
       y_0_1 <= 1
       y_0_2 <= 1
       y_0_3 <= 1
       y_0_4 <= 1
       y_0_5 <= 1
       y_0_6 <= 1
       y_0_7 <= 1
       y_0_8 <= 1
       y_0_9 <= 1
       y_0_10 <= 1
       y_0_11 <= 1
       y_0_12 <= 1
       y_0_13 <= 1
       y_0_14 <= 1
       y_0_15 <= 1
       y_0_16 <= 1
       y_0_17 <= 1
       y_0_18 <= 1
       y_0_19 <= 1
       y_0_20 <= 1
       y_0_21 <= 1
       y_0_22 <= 1
       y_0_23 <= 1
       y_0_24 <= 1
       y_0_25 <= 1
       y_0_26 <= 1
       y_0_27 <= 1
       y_0_28 <= 1
       y_0_29 <= 1
       y_0_30 <= 1
       y_1_0 <= 1
       y_1_1 <= 1
       y_1_2 <= 1
       y_1_3 <= 1
       y_1_4 <= 1
       y_1_5 <= 1
       y_1_6 <= 1
       y_1_7 <= 1
       y_1_8 <= 1
       y_1_9 <= 1
       y_1_10 <= 1
       y_1_11 <= 1
       y_1_12 <= 1
       y_1_13 <= 1
       y_1_14 <= 1
       y_1_15 <= 1
       y_1_16 <= 1
       y_1_17 <= 1
       y_1_18 <= 1
       y_1_19 <= 1
       y_1_20 <= 1
       y_1_21 <= 1
       y_1_22 <= 1
       y_1_23 <= 1
       y_1_24 <= 1
       y_1_25 <= 1
       y_1_26 <= 1
       y_1_27 <= 1
       y_1_28 <= 1
       y_1_29 <= 1
       y_1_30 <= 1
       y_2_0 <= 1
       y_2_1 <= 1
       y_2_2 <= 1
       y_2_3 <= 1
       y_2_4 <= 1
       y_2_5 <= 1
       y_2_6 <= 1
       y_2_7 <= 1
       y_2_8 <= 1
       y_2_9 <= 1
       y_2_10 <= 1
       y_2_11 <= 1
       y_2_12 <= 1
       y_2_13 <= 1
       y_2_14 <= 1
       y_2_15 <= 1
       y_2_16 <= 1
       y_2_17 <= 1
       y_2_18 <= 1
       y_2_19 <= 1
       y_2_20 <= 1
       y_2_21 <= 1
       y_2_22 <= 1
       y_2_23 <= 1
       y_2_24 <= 1
       y_2_25 <= 1
       y_2_26 <= 1
       y_2_27 <= 1
       y_2_28 <= 1
       y_3_0 <= 1
       y_3_1 <= 1
       y_3_2 <= 1
       y_3_3 <= 1
       y_3_4 <= 1
       y_3_5 <= 1
       y_3_6 <= 1
       y_3_7 <= 1
       y_3_8 <= 1
       y_3_9 <= 1
       y_3_10 <= 1
       y_3_11 <= 1
       y_3_12 <= 1
       y_3_13 <= 1
       y_3_14 <= 1
       y_3_15 <= 1
       y_3_16 <= 1
       y_3_17 <= 1
       y_3_18 <= 1
       y_3_19 <= 1
       y_3_20 <= 1
       y_3_21 <= 1
       y_3_22 <= 1
       y_3_23 <= 1
       y_3_24 <= 1
       y_3_25 <= 1
       y_3_26 <= 1
       y_3_27 <= 1
       y_3_28 <= 1
       y_4_0 <= 1
       y_4_1 <= 1
       y_4_2 <= 1
       y_4_3 <= 1
       y_4_4 <= 1
       y_4_5 <= 1
       y_4_6 <= 1
       y_4_7 <= 1
       y_4_8 <= 1
       y_4_9 <= 1
       y_4_10 <= 1
       y_4_11 <= 1
       y_4_12 <= 1
       y_4_13 <= 1
       y_4_14 <= 1
       y_4_15 <= 1
       y_4_16 <= 1
       y_4_17 <= 1
       y_4_18 <= 1
       y_4_19 <= 1
       y_4_20 <= 1
       y_4_21 <= 1
       y_4_22 <= 1
       y_4_23 <= 1
       y_4_24 <= 1
       y_4_25 <= 1
       y_4_26 <= 1
       y_4_27 <= 1
       y_4_28 <= 1
       y_4_29 <= 1
       y_4_30 <= 1
 0 <= lambda_0_0 <= 1
 0 <= lambda_0_1 <= 1
 0 <= lambda_0_2 <= 1
 0 <= lambda_0_3 <= 1
 0 <= lambda_1_0 <= 1
 0 <= lambda_1_1 <= 1
 0 <= lambda_1_2 <= 1
 0 <= lambda_1_3 <= 1
 0 <= lambda_2_0 <= 1
 0 <= lambda_2_1 <= 1
 0 <= lambda_2_2 <= 1
 0 <= lambda_2_3 <= 1
 0 <= lambda_3_0 <= 1
 0 <= lambda_3_1 <= 1
 0 <= lambda_3_2 <= 1
 0 <= lambda_3_3 <= 1
 0 <= lambda_4_0 <= 1
 0 <= lambda_4_1 <= 1
 0 <= lambda_4_2 <= 1
 0 <= lambda_4_3 <= 1
       mu_0_0 <= 1
       mu_0_1 <= 1
       mu_0_2 <= 1
       mu_0_3 <= 1
       mu_0_4 <= 1
       mu_0_5 <= 1
       mu_0_6 <= 1
       mu_1_0 <= 1
       mu_1_1 <= 1
       mu_1_2 <= 1
       mu_1_3 <= 1
       mu_1_4 <= 1
       mu_1_5 <= 1
       mu_1_6 <= 1
       mu_1_7 <= 1
       mu_2_0 <= 1
       mu_2_1 <= 1
       mu_2_2 <= 1
       mu_2_3 <= 1
       mu_2_4 <= 1
       mu_3_0 <= 1
       mu_3_1 <= 1
       mu_3_2 <= 1
       mu_3_3 <= 1
       mu_4_0 <= 1
       mu_4_1 <= 1
       mu_4_2 <= 1
       mu_4_3 <= 1
       mu_5_0 <= 1
       mu_5_1 <= 1
       mu_5_2 <= 1
       mu_5_3 <= 1
       mu_5_4 <= 1
       mu_5_5 <= 1
       mu_5_6 <= 1
       mu_5_7 <= 1
       mu_5_8 <= 1
       mu_6_0 <= 1
       mu_6_1 <= 1
       mu_6_2 <= 1
       mu_6_3 <= 1
       mu_6_4 <= 1
       mu_6_5 <= 1
       mu_7_0 <= 1
       mu_7_1 <= 1
       mu_7_2 <= 1
       mu_7_3 <= 1
       mu_7_4 <= 1
       mu_7_5 <= 1
       mu_7_6 <= 1

Binaries
 lambda_0_0 lambda_0_1 lambda_0_2 lambda_0_3 lambda_1_0 lambda_1_1 lambda_1_2
 lambda_1_3 lambda_2_0 lambda_2_1 lambda_2_2 lambda_2_3 lambda_3_0 lambda_3_1
 lambda_3_2 lambda_3_3 lambda_4_0 lambda_4_1 lambda_4_2 lambda_4_3
End
